; benchmark generated from python API
(set-info :status unknown)
(declare-datatypes ((RealState 0)) (((RMk1 (rval1 Real)) (RMk2 (rval2 Real)))))
 (declare-fun x1 () Real)
(assert
 (let (($x5534 (forall ((?y1 Real) )(exists ((?y3_st RealState) (val!268 Real) )(let (($x693 (exists ((?y4 Real) )(! (let (($x2872 (forall ((?y5 Real) )(! (let ((?x6512 (- 70.0)))
 (let ((?x4496 (* ?x6512 x1)))
 (let ((?x10827 (* 97.0 ?y1)))
 (let ((?x5981 (+ (+ (+ (* 81.0 ?y5) (* 90.0 ?y4)) (* 15.0 (rval2 ?y3_st))) ?x10827)))
 (let ((?x642 (- 11.0)))
 (let ((?x9557 (* 17.0 x1)))
 (let ((?x6987 (* 60.0 ?y1)))
 (let ((?x7849 (+ (+ (+ (* 96.0 ?y5) (* 76.0 ?y4)) (* (- 75.0) (rval2 ?y3_st))) ?x6987)))
 (let ((?x9319 (* 13.0 x1)))
 (let ((?x3475 (+ (+ (+ (* 6.0 ?y5) (* 25.0 ?y4)) (* (- 27.0) ?y1)) ?x9319)))
 (let ((?x11167 (- 31.0)))
 (let ((?x9160 (* ?x11167 ?y1)))
 (let ((?x5545 (+ (+ (+ (* 22.0 ?y5) (* (- 72.0) ?y4)) (* 25.0 (rval2 ?y3_st))) ?x9160)))
 (let (($x12001 (or (or (<= (+ ?x5545 ?x9319) 0.0) (< ?x3475 97.0)) (and (>= (+ ?x7849 ?x9557) ?x642) (not (= (+ ?x5981 ?x4496) 83.0))))))
 (let ((?x7468 (* 96.0 x1)))
 (let ((?x1502 (+ (+ (+ (* 4.0 ?y5) (* 75.0 ?y4)) (* (- 65.0) (rval2 ?y3_st))) ?x7468)))
 (let ((?x1327 (- 81.0)))
 (let ((?x5455 (* ?x1327 x1)))
 (let (($x8797 (or (< (+ (+ (* 99.0 (rval2 ?y3_st)) (* (- 21.0) ?y1)) ?x5455) 1.0) (<= ?x1502 11.0))))
 (let (($x10175 (forall ((?y6 Real) )(! (let ((?x8228 (- 94.0)))
 (let ((?x53 (* ?x8228 x1)))
 (let ((?x2887 (rval2 ?y3_st)))
 (let ((?x2222 (- 37.0)))
 (let ((?x5622 (* ?x2222 ?x2887)))
 (let ((?x11543 (* 82.0 ?y5)))
 (let ((?x547 (- 44.0)))
 (let ((?x1052 (* ?x547 ?y6)))
 (let ((?x10220 (+ ?x1052 ?x11543)))
 (= (+ (+ ?x10220 ?x5622) ?x53) 0.0)))))))))) :qid k!20))
 ))
 (let (($x5390 (exists ((?y6 Real) )(! (let ((?x3844 (* 45.0 x1)))
 (let ((?x11623 (+ (+ (+ (* 47.0 ?y5) (* 94.0 ?y4)) (* (- 52.0) (rval2 ?y3_st))) (* (- 82.0) ?y1))))
 (let ((?x4699 (- 18.0)))
 (let (($x10500 (= (+ (+ (* 92.0 ?y5) (* 62.0 (rval2 ?y3_st))) (* 56.0 x1)) ?x4699)))
 (and $x10500 (= (+ ?x11623 ?x3844) 60.0)))))) :qid k!20))
 ))
 (or (or $x5390 $x10175) (or $x8797 $x12001))))))))))))))))))))))) :qid k!20))
 ))
 (let (($x3340 (exists ((?y5 Real) )(! (let ((?x529 (- 58.0)))
 (let ((?x10178 (* ?x529 x1)))
 (let ((?x10711 (- 83.0)))
 (let ((?x945 (* ?x10711 ?y1)))
 (let ((?x9446 (+ (+ (+ (* 7.0 ?y5) (* (- 34.0) ?y4)) (* 75.0 (rval2 ?y3_st))) ?x945)))
 (let ((?x9298 (- 8.0)))
 (let ((?x10633 (- 19.0)))
 (let ((?x2910 (* ?x10633 ?y1)))
 (let ((?x11065 (+ (+ (+ (* 43.0 ?y5) (* ?x10711 ?y4)) (* (- 50.0) (rval2 ?y3_st))) ?x2910)))
 (let ((?x1712 (- 93.0)))
 (let ((?x296 (* 4.0 x1)))
 (let ((?x2399 (- 65.0)))
 (let ((?x10322 (* ?x2399 ?y1)))
 (let ((?x4675 (+ (+ (+ (* 70.0 ?y5) (* 6.0 ?y4)) (* ?x10711 (rval2 ?y3_st))) ?x10322)))
 (let ((?x6458 (* 41.0 x1)))
 (let ((?x10828 (+ (+ (+ (* 92.0 ?y5) (* 32.0 ?y4)) (* (- 70.0) (rval2 ?y3_st))) (* (- 16.0) ?y1))))
 (let (($x10532 (or (and (= (+ ?x10828 ?x6458) 0.0) (> (+ ?x4675 ?x296) ?x1712)) (or (>= ?x11065 ?x9298) (>= (+ ?x9446 ?x10178) 4.0)))))
 (let ((?x597 (- 56.0)))
 (let ((?x6436 (* (- 25.0) x1)))
 (let (($x4395 (or (> (+ (* 99.0 ?y4) (* (- 97.0) ?y1)) 32.0) (< (+ (+ (* (- 46.0) ?y4) (* (- 15.0) ?y1)) ?x6436) ?x597))))
 (and $x4395 $x10532))))))))))))))))))))) :qid k!20))
 ))
 (let ((?x12189 (* 66.0 x1)))
 (let (($x824 (> (+ (+ (* (- 53.0) (rval2 ?y3_st)) (* (- 50.0) ?y1)) ?x12189) 0.0)))
 (let ((?x9579 (+ (+ (* 80.0 ?y4) (* (- 23.0) (rval2 ?y3_st))) (* (- 66.0) ?y1))))
 (let (($x5485 (or (and (>= ?x9579 67.0) $x824) (> (* (- 15.0) (rval2 ?y3_st)) 80.0))))
 (let (($x10255 (forall ((?y5 Real) )(! (exists ((?y6 Real) )(! (let ((?x3913 (* 85.0 ?y1)))
 (let ((?x10077 (+ (+ (* (- 73.0) ?y6) (* 72.0 ?y5)) (* (- 79.0) ?y4))))
 (let ((?x5774 (- 53.0)))
 (let ((?x10591 (* 92.0 x1)))
 (let ((?x1128 (+ (+ (+ (* 82.0 ?y6) (* 5.0 ?y5)) (* (- 8.0) ?y4)) ?x10591)))
 (let (($x8462 (< ?x1128 ?x5774)))
 (let ((?x9951 (* ?x5774 x1)))
 (let ((?x1297 (* 33.0 ?y1)))
 (let ((?x1238 (+ (+ (* 12.0 ?y6) (* (- 18.0) ?y5)) (* (- 5.0) ?y4))))
 (let ((?x13159 (- 27.0)))
 (let ((?x7066 (* ?x13159 x1)))
 (let ((?x1454 (* 58.0 ?y1)))
 (let ((?x2887 (rval2 ?y3_st)))
 (let ((?x1979 (* 43.0 ?x2887)))
 (let ((?x10683 (- 45.0)))
 (let ((?x5274 (* ?x10683 ?y4)))
 (let ((?x9517 (+ (+ (* 89.0 ?y6) (* (- 48.0) ?y5)) ?x5274)))
 (let (($x8688 (or (not (= (+ (+ (+ ?x9517 ?x1979) ?x1454) ?x7066) 0.0)) (<= (+ (+ (+ ?x1238 (* 1.0 ?x2887)) ?x1297) ?x9951) 0.0))))
 (let ((?x1984 (* 73.0 ?y1)))
 (let ((?x601 (* 54.0 ?y4)))
 (let ((?x3223 (+ (+ (* 38.0 ?y6) (* (- 94.0) ?y5)) ?x601)))
 (let ((?x5664 (- 12.0)))
 (let ((?x10451 (* ?x5664 x1)))
 (let ((?x2912 (+ (+ (+ (* 12.0 ?y6) (* (- 41.0) ?y4)) (* (- 90.0) ?x2887)) (* (- 6.0) ?y1))))
 (let ((?x7101 (- 55.0)))
 (let ((?x3013 (* ?x7101 x1)))
 (let ((?x942 (* 81.0 ?x2887)))
 (let ((?x13133 (- 20.0)))
 (let ((?x10679 (* ?x13133 ?y4)))
 (let ((?x9602 (+ (+ (* (- 24.0) ?y6) (* 50.0 ?y5)) ?x10679)))
 (let (($x8443 (or (<= (+ (+ (+ ?x9602 ?x942) (* (- 85.0) ?y1)) ?x3013) 0.0) (< (+ (* (- 75.0) ?y5) (* (- 37.0) ?y1)) 85.0))))
 (let (($x3821 (and $x8443 (or (not (= (+ ?x2912 ?x10451) 0.0)) (> (+ ?x3223 ?x1984) 14.0)))))
 (or $x3821 (or $x8688 (and $x8462 (<= (+ (+ ?x10077 (* 84.0 ?x2887)) ?x3913) 0.0)))))))))))))))))))))))))))))))))))) :qid k!20))
  :qid k!20))
 ))
 (let (($x11892 (exists ((?y6 Real) )(! (let ((?x1412 (* 89.0 x1)))
 (let ((?x6795 (+ (+ (+ (* 90.0 ?y6) (* 13.0 (rval2 ?y3_st))) (* 60.0 ?y1)) ?x1412)))
 (let ((?x547 (- 44.0)))
 (let ((?x1052 (* ?x547 ?y6)))
 (let (($x4141 (< ?x1052 0.0)))
 (let ((?x2927 (- 28.0)))
 (let ((?x876 (- 39.0)))
 (let ((?x3378 (* ?x876 ?y6)))
 (let ((?x5889 (+ ?x3378 (* 98.0 ?y4))))
 (let ((?x12135 (- 60.0)))
 (let (($x1881 (= (+ (+ (* (- 48.0) ?y4) (* (- 69.0) ?y1)) (* 61.0 x1)) ?x12135)))
 (let (($x6786 (or (not $x1881) (<= (+ (+ ?x5889 (* (- 13.0) (rval2 ?y3_st))) (* 20.0 ?y1)) ?x2927))))
 (let ((?x3359 (- 41.0)))
 (let ((?x4769 (* ?x3359 x1)))
 (let ((?x2222 (- 37.0)))
 (let ((?x3192 (* ?x2222 ?y6)))
 (let ((?x10531 (+ ?x3192 (* 3.0 ?y4))))
 (let ((?x10030 (- 32.0)))
 (let ((?x1998 (* ?x10030 x1)))
 (let ((?x7553 (+ (+ (+ (* 57.0 ?y6) (* 19.0 ?y4)) (* (- 3.0) (rval2 ?y3_st))) (* (- 100.0) ?y1))))
 (let (($x2042 (and (= (+ ?x7553 ?x1998) 53.0) (not (= (+ (+ ?x10531 (* (- 71.0) (rval2 ?y3_st))) ?x4769) 54.0)))))
 (let ((?x2339 (- 5.0)))
 (let ((?x1586 (* ?x2339 x1)))
 (let (($x5304 (= (+ (+ (* (- 67.0) ?y4) (* (- 10.0) (rval2 ?y3_st))) ?x1586) ?x876)))
 (let (($x992 (and (not $x5304) (not (= (+ (* 69.0 ?y4) (* 63.0 (rval2 ?y3_st))) (- 57.0))))))
 (let ((?x3288 (- 73.0)))
 (let (($x2026 (= (+ (+ (* 37.0 ?y6) (* 58.0 (rval2 ?y3_st))) (* (- 65.0) ?y1)) ?x3288)))
 (let (($x2581 (and $x2026 (< (+ (+ (* (- 14.0) ?y6) (* 72.0 (rval2 ?y3_st))) ?x4769) 0.0))))
 (let (($x6226 (= (+ (+ (* 100.0 ?y4) (* (- 20.0) (rval2 ?y3_st))) (* 62.0 ?y1)) 0.0)))
 (let ((?x1644 (- 74.0)))
 (let ((?x8719 (- 71.0)))
 (let ((?x7149 (* ?x8719 x1)))
 (let ((?x7136 (+ (+ (+ (* (- 89.0) ?y6) (* 28.0 ?y4)) (* (- 49.0) ?y1)) ?x7149)))
 (let ((?x5748 (- 82.0)))
 (let ((?x9083 (- 64.0)))
 (let ((?x8368 (* ?x9083 x1)))
 (let ((?x2399 (- 65.0)))
 (let ((?x10737 (* ?x2399 ?y6)))
 (let ((?x9495 (+ ?x10737 (* (- 100.0) ?y4))))
 (let ((?x11167 (- 31.0)))
 (let ((?x5919 (* ?x11167 x1)))
 (let (($x2906 (not (= (+ (+ (* (- 78.0) ?y6) (* (- 22.0) ?y1)) ?x5919) 96.0))))
 (let ((?x4129 (rval2 ?y3_st)))
 (let ((?x9161 (* 85.0 ?x4129)))
 (let ((?x10488 (- 66.0)))
 (let ((?x3083 (* ?x10488 ?y4)))
 (let ((?x2229 (+ (* (- 54.0) ?y6) ?x3083)))
 (let (($x8361 (< (+ (+ (+ ?x3378 (* 74.0 ?y4)) (* (- 22.0) ?x4129)) ?x8368) 0.0)))
 (let (($x1783 (and (and $x8361 (> (+ ?x2229 ?x9161) 0.0)) (or $x2906 (= (+ (+ ?x9495 (* 61.0 ?x4129)) ?x8368) ?x5748)))))
 (let ((?x1332 (- 50.0)))
 (let ((?x13159 (- 27.0)))
 (let ((?x7066 (* ?x13159 x1)))
 (let ((?x5280 (- 98.0)))
 (let ((?x623 (* ?x5280 ?y1)))
 (let ((?x1585 (+ (+ (+ (* 93.0 ?y6) (* (- 8.0) ?y4)) (* 9.0 ?x4129)) ?x623)))
 (let (($x2506 (or (>= (+ ?x1585 ?x7066) ?x1332) (> (+ (* 43.0 ?y1) (* (- 76.0) x1)) (- 87.0)))))
 (let ((?x8467 (* 51.0 x1)))
 (let ((?x6572 (* 19.0 ?y1)))
 (let ((?x6883 (+ (+ (+ (* 21.0 ?y6) (* (- 26.0) ?y4)) (* (- 47.0) ?x4129)) ?x6572)))
 (let ((?x10182 (+ (+ (+ (* (- 59.0) ?y6) (* 12.0 ?y4)) (* ?x10488 ?x4129)) (* 38.0 ?y1))))
 (let (($x606 (and (and (or (or (>= ?x10182 67.0) (> (+ ?x6883 ?x8467) 99.0)) $x2506) $x1783) (and (and (or (< ?x7136 ?x1644) $x6226) $x2581) (and $x992 $x2042)))))
 (or $x606 (and $x6786 (or $x4141 (> ?x6795 0.0))))))))))))))))))))))))))))))))))))))))))))))))))))))))))))))))) :qid k!20))
 ))
 (or $x11892 (or (and $x10255 $x5485) (and $x3340 $x2872))))))))))) :qid k!20))
 ))
 (let (($x9190 (exists ((?y4 Real) )(! (forall ((?y5 Real) )(! (exists ((?y6 Real) )(! (let ((?x4735 (* 28.0 x1)))
 (let ((?x2887 (rval2 ?y3_st)))
 (let ((?x942 (* 81.0 ?x2887)))
 (let ((?x5331 (+ (+ (* 85.0 ?y6) (* 51.0 ?y5)) (* (- 91.0) ?y4))))
 (let ((?x7841 (- 68.0)))
 (let ((?x385 (+ (+ (+ (* (- 66.0) ?y5) (* (- 51.0) ?y4)) (* 24.0 ?x2887)) (* (- 78.0) ?y1))))
 (let ((?x3896 (- 86.0)))
 (let ((?x9586 (* 46.0 x1)))
 (let ((?x11264 (- 69.0)))
 (let ((?x6612 (* ?x11264 ?y4)))
 (let ((?x1051 (+ (+ (* (- 1.0) ?y6) (* (- 61.0) ?y5)) ?x6612)))
 (let (($x11402 (and (< (+ (+ ?x1051 (* 6.0 ?x2887)) ?x9586) ?x3896) (or (>= ?x385 ?x7841) (< (+ (+ ?x5331 ?x942) ?x4735) 0.0)))))
 (let ((?x12135 (- 60.0)))
 (let ((?x10591 (* 92.0 x1)))
 (let (($x3140 (<= (+ (+ (+ (* 60.0 ?y6) (* 47.0 ?y5)) (* 6.0 ?y1)) ?x10591) ?x12135)))
 (let ((?x1708 (- 47.0)))
 (let ((?x5213 (+ (+ (+ (* (- 31.0) ?y6) (* 55.0 ?y5)) (* (- 54.0) ?x2887)) (* (- 31.0) ?y1))))
 (let ((?x13159 (- 27.0)))
 (let ((?x7401 (- 15.0)))
 (let ((?x6119 (* ?x7401 x1)))
 (let ((?x10052 (* 61.0 ?y4)))
 (let ((?x1148 (+ (+ (* (- 21.0) ?y6) (* (- 8.0) ?y5)) ?x10052)))
 (let (($x2829 (not (= (+ (+ (+ ?x1148 (* 33.0 ?x2887)) (* (- 35.0) ?y1)) ?x6119) ?x13159))))
 (let ((?x4667 (- 10.0)))
 (let ((?x3151 (* ?x4667 x1)))
 (let ((?x9249 (* 26.0 ?y4)))
 (let ((?x7738 (+ (+ (* 38.0 ?y6) (* 30.0 ?y5)) ?x9249)))
 (let ((?x6458 (* 41.0 x1)))
 (let ((?x11753 (+ (+ (+ (* (- 45.0) ?y5) (* 82.0 ?y4)) (* (- 94.0) ?x2887)) (* (- 43.0) ?y1))))
 (let (($x3662 (or (= (+ ?x11753 ?x6458) 0.0) (< (+ (+ ?x7738 (* (- 70.0) ?x2887)) ?x3151) 0.0))))
 (let ((?x7887 (* 39.0 x1)))
 (let ((?x8774 (+ (+ (* (- 38.0) ?y6) (* (- 81.0) ?y5)) (* 21.0 ?y4))))
 (let ((?x12103 (- 26.0)))
 (let ((?x5945 (* ?x12103 x1)))
 (let ((?x10408 (+ (+ (+ (* 34.0 ?y4) (* 30.0 ?x2887)) (* (- 41.0) ?y1)) ?x5945)))
 (let (($x7075 (or (or (< ?x10408 0.0) (>= (+ (+ ?x8774 (* ?x11264 ?y1)) ?x7887) 55.0)) $x3662)))
 (let ((?x9618 (* 48.0 x1)))
 (let ((?x4852 (+ (+ (+ (* 50.0 ?y6) (* (- 31.0) ?y5)) (* 22.0 ?x2887)) ?x9618)))
 (let ((?x642 (- 11.0)))
 (let ((?x10706 (* ?x642 x1)))
 (let ((?x1659 (+ (+ (+ (* 35.0 ?y6) (* (- 49.0) ?y4)) (* ?x642 ?x2887)) (* (- 58.0) ?y1))))
 (let ((?x5864 (- 79.0)))
 (let ((?x1748 (* ?x5864 x1)))
 (let ((?x1254 (+ (+ (+ (* 5.0 ?y6) (* 11.0 ?y4)) (* (- 39.0) ?x2887)) (* (- 46.0) ?y1))))
 (let ((?x7221 (* 7.0 x1)))
 (let ((?x4699 (- 18.0)))
 (let ((?x807 (* ?x4699 ?y1)))
 (let ((?x10030 (- 32.0)))
 (let ((?x1928 (* ?x10030 ?x2887)))
 (let ((?x13084 (- 1.0)))
 (let ((?x996 (* ?x13084 ?y4)))
 (let ((?x1690 (+ (+ (* (- 83.0) ?y6) (* ?x12135 ?y5)) ?x996)))
 (let (($x7173 (and (not (= (+ (+ (+ ?x1690 ?x1928) ?x807) ?x7221) 69.0)) (> (+ ?x1254 ?x1748) 0.0))))
 (let (($x8041 (and (and $x7173 (and (< (+ ?x1659 ?x10706) 0.0) (= ?x4852 0.0))) $x7075)))
 (or $x8041 (or (or (and $x2829 (>= ?x5213 ?x1708)) $x3140) $x11402)))))))))))))))))))))))))))))))))))))))))))))))))))))))) :qid k!20))
  :qid k!20))
  :qid k!20))
 ))
 (let (($x2735 (exists ((?y4 Real) )(! (let ((?x7301 (- 9.0)))
 (let (($x9290 (= (+ (+ (* (- 52.0) ?y4) (* (- 62.0) ?y1)) (* 39.0 x1)) ?x7301)))
 (let (($x4523 (<= (+ (* (- 2.0) ?y4) (* 81.0 x1)) 0.0)))
 (let (($x2405 (<= (+ (+ (* 8.0 (rval2 ?y3_st)) (* 67.0 ?y1)) (* (- 3.0) x1)) 68.0)))
 (let ((?x9319 (* 13.0 x1)))
 (let ((?x8424 (- 61.0)))
 (let ((?x5692 (* ?x8424 ?y1)))
 (let (($x9616 (>= (+ (+ (+ (* 40.0 ?y4) (* (- 41.0) (rval2 ?y3_st))) ?x5692) ?x9319) 43.0)))
 (let ((?x5664 (- 12.0)))
 (let ((?x10451 (* ?x5664 x1)))
 (let ((?x3415 (- 99.0)))
 (let ((?x9743 (* ?x3415 x1)))
 (let (($x1861 (and (< (+ (+ (* 100.0 (rval2 ?y3_st)) (* ?x3415 ?y1)) ?x9743) 61.0) (<= (+ (+ (* (- 13.0) ?y4) (* (- 45.0) ?y1)) ?x10451) 0.0))))
 (let ((?x3322 (- 91.0)))
 (let ((?x6321 (* 69.0 x1)))
 (let ((?x7056 (+ (+ (* 71.0 ?y4) (* (- 53.0) (rval2 ?y3_st))) (* (- 1.0) ?y1))))
 (let ((?x5748 (- 82.0)))
 (let ((?x3664 (* ?x5748 x1)))
 (let ((?x407 (+ (+ (+ (* (- 93.0) ?y4) (* 20.0 (rval2 ?y3_st))) (* 55.0 ?y1)) ?x3664)))
 (let (($x10236 (>= (+ (+ (* 71.0 ?y4) (* 36.0 (rval2 ?y3_st))) (* (- 75.0) ?y1)) 0.0)))
 (let ((?x6512 (- 70.0)))
 (let (($x5070 (= (+ (+ (* 40.0 ?y4) (* ?x5748 (rval2 ?y3_st))) (* (- 77.0) x1)) ?x6512)))
 (let (($x10387 (and (or (not $x5070) $x10236) (and (< ?x407 58.0) (> (+ ?x7056 ?x6321) ?x3322)))))
 (let ((?x2320 (- 13.0)))
 (let ((?x266 (* ?x2320 x1)))
 (let ((?x8060 (+ (+ (+ (* 28.0 ?y4) (* 41.0 (rval2 ?y3_st))) (* (- 68.0) ?y1)) ?x266)))
 (let (($x8668 (or (= ?x8060 57.0) (not (= (+ (* 6.0 ?y4) (* ?x3415 (rval2 ?y3_st))) (- 58.0))))))
 (let ((?x10207 (* 82.0 x1)))
 (let ((?x10239 (+ (+ (* (- 56.0) ?y4) (* (- 38.0) (rval2 ?y3_st))) (* 59.0 ?y1))))
 (let (($x5043 (<= (+ (+ (* 31.0 (rval2 ?y3_st)) (* 31.0 ?y1)) (* (- 19.0) x1)) 0.0)))
 (let (($x1154 (or (and (and (and $x5043 (<= (+ ?x10239 ?x10207) 12.0)) $x8668) $x10387) (or (and $x1861 $x9616) (and $x2405 (or $x4523 $x9290))))))
 (let (($x8634 (forall ((?y5 Real) )(! (let ((?x67 (* 38.0 x1)))
 (let ((?x1120 (* 39.0 ?y1)))
 (let ((?x752 (+ (+ (+ (* 74.0 ?y5) (* (- 78.0) ?y4)) (* 88.0 (rval2 ?y3_st))) ?x1120)))
 (let ((?x6436 (* (- 25.0) x1)))
 (let ((?x5280 (- 98.0)))
 (let ((?x623 (* ?x5280 ?y1)))
 (let (($x7413 (<= (+ (+ (+ (* (- 52.0) ?y5) (* 31.0 (rval2 ?y3_st))) ?x623) ?x6436) 35.0)))
 (let ((?x3415 (- 99.0)))
 (let ((?x9743 (* ?x3415 x1)))
 (let ((?x2831 (* 31.0 ?y1)))
 (let ((?x6373 (+ (+ (+ (* 32.0 ?y5) (* (- 64.0) ?y4)) (* 52.0 (rval2 ?y3_st))) ?x2831)))
 (let ((?x1866 (* 8.0 x1)))
 (let ((?x4058 (+ (+ (* 72.0 ?y4) (* (- 70.0) (rval2 ?y3_st))) (* (- 50.0) ?y1))))
 (let (($x9155 (or (and (< (+ ?x4058 ?x1866) 0.0) (not (= (+ ?x6373 ?x9743) 36.0))) (and $x7413 (>= (+ ?x752 ?x67) 52.0)))))
 (let ((?x2924 (* 83.0 x1)))
 (let ((?x2866 (* 84.0 ?y1)))
 (let ((?x2848 (+ (+ (+ (* 22.0 ?y5) (* (- 59.0) ?y4)) (* 94.0 (rval2 ?y3_st))) ?x2866)))
 (let (($x9740 (>= (+ (* (- 12.0) ?y4) (* (- 88.0) x1)) 0.0)))
 (let (($x5656 (= (+ (* (- 55.0) ?y5) (* (- 5.0) ?y4)) 0.0)))
 (let ((?x11167 (- 31.0)))
 (let ((?x4735 (* 28.0 x1)))
 (let ((?x3886 (+ (+ (+ (* (- 3.0) ?y5) (* 49.0 ?y4)) (* 86.0 ?y1)) ?x4735)))
 (and (or (<= ?x3886 ?x11167) $x5656) (and (and $x9740 (< (+ ?x2848 ?x2924) 22.0)) $x9155)))))))))))))))))))))))) :qid k!20))
 ))
 (and $x8634 $x1154))))))))))))))))))))))))))))))))) :qid k!20))
 ))
 (let (($x2803 (not (= ?y3_st (RMk1 val!268)))))
 (and $x2803 (and (or $x2735 $x9190) $x693)))))))
 )
 ))
 (let (($x588 (forall ((?y2 Real) )(exists ((?y3_st RealState) (val!267 Real) )(forall ((?y4 Real) )(let (($x545 (forall ((?y5 Real) )(! (let (($x7776 (forall ((?y6 Real) )(! (let ((?x642 (- 11.0)))
 (let ((?x10706 (* ?x642 x1)))
 (let ((?x2887 (rval2 ?y3_st)))
 (let ((?x1712 (- 93.0)))
 (let ((?x3624 (* ?x1712 ?x2887)))
 (let ((?x10006 (+ (+ (* (- 35.0) ?y6) (* (- 20.0) ?y5)) (* (- 95.0) ?y4))))
 (let ((?x13084 (- 1.0)))
 (let ((?x8280 (* 2.0 x1)))
 (let ((?x7996 (* 60.0 ?y4)))
 (let ((?x8897 (+ (+ (* 66.0 ?y6) (* (- 79.0) ?y5)) ?x7996)))
 (let (($x254 (or (<= (+ (+ ?x8897 (* (- 75.0) ?y2)) ?x8280) ?x13084) (= (+ (+ (+ ?x10006 ?x3624) (* (- 21.0) ?y2)) ?x10706) 59.0))))
 (let (($x10733 (< (+ (+ (* 65.0 ?y6) (* (- 15.0) ?y4)) (* 31.0 ?x2887)) 0.0)))
 (let (($x4086 (or (and $x10733 (not (= (+ (* 38.0 ?y4) (* 68.0 ?x2887)) 0.0))) $x254)))
 (let ((?x13159 (- 27.0)))
 (let ((?x7066 (* ?x13159 x1)))
 (let ((?x7010 (+ (+ (* (- 7.0) ?y4) (* (- 62.0) ?x2887)) (* (- 19.0) ?y2))))
 (let ((?x720 (- 76.0)))
 (let ((?x4242 (* 26.0 x1)))
 (let ((?x5179 (+ (+ (+ (* (- 19.0) ?y6) (* 100.0 ?y4)) (* 55.0 ?x2887)) (* (- 55.0) ?y2))))
 (let ((?x12103 (- 26.0)))
 (let ((?x5945 (* ?x12103 x1)))
 (let ((?x2834 (+ (+ (+ (* 75.0 ?y6) (* 64.0 ?y4)) (* (- 31.0) ?x2887)) (* (- 40.0) ?y2))))
 (let ((?x7301 (- 9.0)))
 (let ((?x9140 (* ?x7301 x1)))
 (let ((?x3436 (+ (+ (+ (* (- 79.0) ?y5) (* (- 49.0) ?y4)) (* 28.0 ?x2887)) (* 77.0 ?y2))))
 (let (($x2720 (and (and (<= (+ ?x3436 ?x9140) 59.0) (= (+ ?x2834 ?x5945) ?x13084)) (and (<= (+ ?x5179 ?x4242) ?x720) (>= (+ ?x7010 ?x7066) 10.0)))))
 (and $x2720 $x4086))))))))))))))))))))))))))) :qid k!20))
 ))
 (let ((?x3322 (- 91.0)))
 (let ((?x1412 (* 89.0 x1)))
 (let ((?x8424 (- 61.0)))
 (let ((?x4021 (* ?x8424 ?y4)))
 (let ((?x8995 (- 57.0)))
 (let ((?x5260 (* ?x8995 ?y5)))
 (let ((?x6087 (+ ?x5260 ?x4021)))
 (let ((?x4925 (+ (+ (+ ?x6087 (* (- 11.0) (rval2 ?y3_st))) (* (- 74.0) ?y2)) ?x1412)))
 (let (($x2174 (<= (+ (+ (* 84.0 ?y5) (* 13.0 (rval2 ?y3_st))) (* 11.0 x1)) 0.0)))
 (let ((?x4122 (* 22.0 x1)))
 (let ((?x7791 (* 50.0 ?y2)))
 (let ((?x9004 (+ (+ (+ (* (- 21.0) ?y5) (* 42.0 ?y4)) (* 23.0 (rval2 ?y3_st))) ?x7791)))
 (let ((?x10683 (- 45.0)))
 (let (($x267 (<= (+ (* 46.0 ?y5) (* (- 71.0) ?y4)) ?x10683)))
 (let ((?x1192 (+ (+ (+ (* (- 41.0) ?y5) (* 93.0 ?y4)) (* 10.0 (rval2 ?y3_st))) (* (- 80.0) ?y2))))
 (let ((?x3896 (- 86.0)))
 (let ((?x3288 (- 73.0)))
 (let ((?x7238 (* ?x3288 x1)))
 (let (($x4666 (>= (+ (+ (* (- 17.0) ?y5) (* (- 65.0) (rval2 ?y3_st))) ?x7238) ?x3896)))
 (let (($x10091 (and (and $x4666 (< ?x1192 40.0)) (and (and $x267 (< (+ ?x9004 ?x4122) 88.0)) (or $x2174 (> ?x4925 ?x3322))))))
 (let ((?x867 (- 2.0)))
 (let (($x2518 (< (+ (+ (* (- 58.0) ?y5) (* 14.0 ?y2)) (* 31.0 x1)) ?x867)))
 (let ((?x2924 (* 83.0 x1)))
 (let ((?x5616 (+ (+ (+ (* 89.0 ?y5) (* (- 42.0) ?y4)) (* 94.0 (rval2 ?y3_st))) (* (- 51.0) ?y2))))
 (let ((?x2927 (- 28.0)))
 (let ((?x1787 (+ (+ (+ (* 1.0 ?y5) (* (- 58.0) ?y4)) (* 96.0 (rval2 ?y3_st))) (* (- 63.0) ?y2))))
 (let (($x5807 (exists ((?y6 Real) )(! (let ((?x10633 (- 19.0)))
 (let ((?x1459 (+ (+ (* (- 17.0) ?y6) (* 46.0 ?y5)) (* (- 23.0) ?y4))))
 (let (($x960 (not (= (+ (+ ?x1459 (* 2.0 (rval2 ?y3_st))) (* (- 87.0) ?y2)) ?x10633))))
 (let ((?x8694 (* 43.0 x1)))
 (let ((?x10955 (* 89.0 ?y2)))
 (let ((?x342 (+ (+ (+ (* 78.0 ?y6) (* 27.0 ?y4)) (* (- 93.0) (rval2 ?y3_st))) ?x10955)))
 (or (>= (+ ?x342 ?x8694) 0.0) $x960))))))) :qid k!20))
 ))
 (let (($x7362 (or $x5807 (or (and (> (+ ?x1787 ?x1412) ?x2927) (< (+ ?x5616 ?x2924) 4.0)) $x2518))))
 (let (($x1150 (forall ((?y6 Real) )(! (let ((?x3194 (* 84.0 x1)))
 (let ((?x7506 (+ (+ (+ (* 27.0 ?y5) (* (- 32.0) (rval2 ?y3_st))) (* 69.0 ?y2)) ?x3194)))
 (let ((?x7407 (* 71.0 x1)))
 (let ((?x7401 (- 15.0)))
 (let ((?x6909 (* ?x7401 ?y2)))
 (let ((?x5038 (+ (+ (+ (* 93.0 ?y6) (* 63.0 ?y4)) (* (- 82.0) (rval2 ?y3_st))) ?x6909)))
 (or (<= (+ ?x5038 ?x7407) 0.0) (> ?x7506 71.0)))))))) :qid k!20))
 ))
 (let ((?x9557 (* 17.0 x1)))
 (let ((?x286 (* (- 33.0) ?y4)))
 (let ((?x11112 (+ (* (- 29.0) ?y5) ?x286)))
 (let ((?x5072 (- 97.0)))
 (let ((?x10838 (* ?x5072 x1)))
 (let (($x576 (>= (+ (+ (+ (* 10.0 ?y5) (* 69.0 ?y4)) (* ?x10683 ?y2)) ?x10838) 70.0)))
 (let ((?x547 (- 44.0)))
 (let ((?x10207 (* 82.0 x1)))
 (let ((?x2889 (+ (+ (+ (* (- 14.0) ?y5) (* 88.0 ?y4)) (* 37.0 (rval2 ?y3_st))) (* (- 81.0) ?y2))))
 (let (($x5557 (or (and (< (+ ?x2889 ?x10207) ?x547) $x576) (not (= (+ (+ ?x11112 (* (- 72.0) ?y2)) ?x9557) 33.0)))))
 (let ((?x4095 (- 85.0)))
 (let ((?x5613 (* ?x4095 x1)))
 (let ((?x12803 (+ (+ (+ (* ?x2927 ?y4) (* 33.0 (rval2 ?y3_st))) (* ?x3896 ?y2)) ?x5613)))
 (let ((?x7555 (* 1.0 x1)))
 (let ((?x13225 (- 96.0)))
 (let ((?x2908 (* ?x13225 ?y4)))
 (let ((?x953 (* 49.0 ?y5)))
 (let ((?x11732 (+ ?x953 ?x2908)))
 (let (($x4670 (or (< (+ (+ ?x11732 (* (- 99.0) (rval2 ?y3_st))) ?x7555) 85.0) (< ?x12803 61.0))))
 (let ((?x7841 (- 68.0)))
 (let ((?x3600 (* ?x7841 x1)))
 (let ((?x12173 (+ (+ (+ (* (- 52.0) ?y4) (* 4.0 (rval2 ?y3_st))) (* 69.0 ?y2)) ?x3600)))
 (let ((?x5664 (- 12.0)))
 (let ((?x2867 (* ?x5664 ?y2)))
 (let (($x2856 (>= (+ (+ (* (- 65.0) ?y5) (* (- 48.0) (rval2 ?y3_st))) ?x2867) ?x3896)))
 (let (($x11213 (exists ((?y6 Real) )(! (let ((?x7101 (- 55.0)))
 (let ((?x3654 (* ?x7101 ?y4)))
 (let ((?x129 (+ (+ (* (- 52.0) ?y6) (* 49.0 ?y5)) ?x3654)))
 (let (($x11562 (= (+ (+ ?x129 (* (- 19.0) (rval2 ?y3_st))) (* (- 27.0) ?y2)) 5.0)))
 (let ((?x12103 (- 26.0)))
 (let ((?x4893 (- 88.0)))
 (let ((?x1637 (* ?x4893 x1)))
 (let ((?x10977 (+ (+ (* (- 76.0) ?y6) (* (- 19.0) ?y5)) (* (- 44.0) ?y4))))
 (let (($x10774 (>= (+ ?x10977 ?x1637) ?x12103)))
 (let ((?x612 (* 5.0 x1)))
 (let ((?x2397 (* 89.0 ?y4)))
 (let ((?x4495 (+ (+ (* (- 59.0) ?y6) (* (- 40.0) ?y5)) ?x2397)))
 (let ((?x4699 (- 18.0)))
 (let ((?x807 (* ?x4699 ?y2)))
 (let ((?x13155 (* 50.0 ?y4)))
 (let ((?x10565 (+ (+ (* 33.0 ?y6) (* (- 51.0) ?y5)) ?x13155)))
 (let (($x2022 (or (> (+ ?x10565 ?x807) 92.0) (>= (+ (+ ?x4495 (* 77.0 (rval2 ?y3_st))) ?x612) 1.0))))
 (let ((?x1644 (- 74.0)))
 (let ((?x13117 (* 14.0 x1)))
 (let ((?x5009 (+ (+ (* (- 7.0) ?y6) (* (- 68.0) ?y5)) (* (- 36.0) ?y4))))
 (or (< (+ (+ ?x5009 (* 61.0 ?y2)) ?x13117) ?x1644) (and $x2022 (or $x10774 (not $x11562)))))))))))))))))))))))) :qid k!20))
 ))
 (let (($x9691 (forall ((?y6 Real) )(! (let ((?x5000 (- 43.0)))
 (let ((?x13159 (- 27.0)))
 (let ((?x7066 (* ?x13159 x1)))
 (let ((?x2599 (* 12.0 ?y2)))
 (let ((?x2887 (rval2 ?y3_st)))
 (let ((?x3161 (* 23.0 ?x2887)))
 (let ((?x13145 (* 22.0 ?y4)))
 (let ((?x4985 (+ (+ (* 6.0 ?y6) (* (- 68.0) ?y5)) ?x13145)))
 (let ((?x7401 (- 15.0)))
 (let ((?x832 (- 95.0)))
 (let ((?x13163 (* ?x832 x1)))
 (let ((?x720 (- 76.0)))
 (let ((?x2621 (* ?x720 ?y2)))
 (let ((?x2515 (+ (+ (+ (* 39.0 ?y5) (* (- 72.0) ?y4)) (* 86.0 ?x2887)) ?x2621)))
 (let (($x8307 (and (<= (+ ?x2515 ?x13163) ?x7401) (> (+ (+ (+ ?x4985 ?x3161) ?x2599) ?x7066) ?x5000))))
 (let ((?x2339 (- 5.0)))
 (let (($x7440 (< (+ (+ (* (- 37.0) ?y6) (* 50.0 ?y4)) (* (- 17.0) ?y2)) ?x2339)))
 (let ((?x547 (- 44.0)))
 (let ((?x8623 (+ (+ (* (- 42.0) ?y6) (* 41.0 ?y5)) (* 84.0 ?y4))))
 (or (and (< (+ ?x8623 (* (- 83.0) ?x2887)) ?x547) $x7440) $x8307)))))))))))))))))))) :qid k!20))
 ))
 (let (($x10869 (exists ((?y6 Real) )(! (let ((?x6329 (* 27.0 x1)))
 (let ((?x2887 (rval2 ?y3_st)))
 (let ((?x2222 (- 37.0)))
 (let ((?x5622 (* ?x2222 ?x2887)))
 (let ((?x5349 (* 44.0 ?y4)))
 (let ((?x4988 (+ (+ (* 13.0 ?y6) (* 69.0 ?y5)) ?x5349)))
 (let ((?x6236 (- 72.0)))
 (let ((?x12033 (* 18.0 x1)))
 (let ((?x10955 (* 89.0 ?y2)))
 (let ((?x2691 (+ (+ (* (- 22.0) ?y6) (* 58.0 ?y5)) (* 32.0 ?y4))))
 (let (($x2719 (and (= (+ (+ ?x2691 ?x10955) ?x12033) ?x6236) (>= (+ (+ ?x4988 ?x5622) ?x6329) 0.0))))
 (let ((?x7301 (- 9.0)))
 (let ((?x2534 (* 40.0 x1)))
 (let ((?x2650 (* 80.0 ?y2)))
 (let ((?x10609 (* 31.0 ?y4)))
 (let ((?x13160 (+ (+ (* (- 34.0) ?y6) (* ?x2222 ?y5)) ?x10609)))
 (let ((?x5000 (- 43.0)))
 (let ((?x7841 (- 68.0)))
 (let ((?x3600 (* ?x7841 x1)))
 (let ((?x293 (* 30.0 ?x2887)))
 (let ((?x8424 (- 61.0)))
 (let ((?x10707 (* ?x8424 ?y4)))
 (let ((?x109 (+ (+ (* (- 42.0) ?y6) (* 100.0 ?y5)) ?x10707)))
 (let (($x12370 (or (> (+ (+ (+ ?x109 ?x293) (* (- 64.0) ?y2)) ?x3600) ?x5000) (= (+ (+ (+ ?x13160 (* 16.0 ?x2887)) ?x2650) ?x2534) ?x7301))))
 (or $x12370 $x2719))))))))))))))))))))))))) :qid k!20))
 ))
 (let (($x9470 (or (and (or $x10869 $x9691) $x11213) (or (and (or $x2856 (< ?x12173 16.0)) $x4670) (or (and $x5557 $x1150) $x7362)))))
 (or $x9470 (and $x10091 $x7776))))))))))))))))))))))))))))))))))))))))))))))))))))))))))))) :qid k!20))
 ))
 (let (($x1493 (exists ((?y5 Real) )(! (forall ((?y6 Real) )(! (let ((?x9400 (- 63.0)))
 (let (($x8100 (> (+ (+ (* (- 26.0) ?y5) (* 53.0 ?y4)) (* 16.0 x1)) ?x9400)))
 (let ((?x67 (* 38.0 x1)))
 (let ((?x2887 (rval2 ?y3_st)))
 (let ((?x5374 (* 54.0 ?x2887)))
 (let ((?x5942 (* 87.0 ?y4)))
 (let ((?x12068 (+ (+ (* 14.0 ?y6) (* (- 33.0) ?y5)) ?x5942)))
 (let ((?x876 (- 39.0)))
 (let ((?x8431 (* ?x876 x1)))
 (let (($x1782 (<= (+ (+ (+ (* 54.0 ?y6) (* 89.0 ?y5)) (* 10.0 ?x2887)) ?x8431) 0.0)))
 (let ((?x4699 (- 18.0)))
 (let ((?x10030 (- 32.0)))
 (let ((?x1928 (* ?x10030 ?x2887)))
 (let ((?x4513 (+ (+ (* 31.0 ?y6) (* (- 21.0) ?y5)) (* (- 60.0) ?y4))))
 (let ((?x12062 (* 52.0 x1)))
 (let ((?x8140 (+ (+ (+ (* 48.0 ?y6) (* 62.0 ?y5)) (* (- 8.0) ?y4)) ?x12062)))
 (let (($x6318 (= ?x8140 66.0)))
 (let ((?x597 (- 56.0)))
 (let ((?x642 (- 11.0)))
 (let ((?x10706 (* ?x642 x1)))
 (let ((?x720 (- 76.0)))
 (let ((?x2621 (* ?x720 ?y2)))
 (let ((?x7933 (+ (+ (* (- 43.0) ?y6) (* (- 13.0) ?y5)) (* (- 14.0) ?y4))))
 (let (($x2523 (and (or (< (+ (+ (+ ?x7933 (* 100.0 ?x2887)) ?x2621) ?x10706) ?x597) $x6318) (and (= (+ (+ ?x4513 ?x1928) (* (- 26.0) ?y2)) ?x4699) $x1782))))
 (let ((?x10683 (- 45.0)))
 (let ((?x13151 (* ?x10683 x1)))
 (let ((?x2650 (* 80.0 ?y2)))
 (let ((?x10690 (* 81.0 ?y4)))
 (let ((?x8070 (+ (+ (* 70.0 ?y6) (* ?x9400 ?y5)) ?x10690)))
 (let ((?x7543 (- 42.0)))
 (let ((?x4801 (- 7.0)))
 (let ((?x9036 (* ?x4801 x1)))
 (let ((?x2696 (+ (+ (* 36.0 ?y6) (* ?x720 ?y5)) (* (- 40.0) ?y4))))
 (let (($x3593 (or (= (+ (+ ?x2696 (* (- 9.0) ?y2)) ?x9036) ?x7543) (<= (+ (+ ?x8070 ?x2650) ?x13151) 0.0))))
 (let ((?x12135 (- 60.0)))
 (let (($x6970 (<= (+ (+ (* 7.0 ?y6) (* 13.0 ?y5)) (* (- 35.0) x1)) ?x12135)))
 (let ((?x13133 (- 20.0)))
 (let ((?x832 (- 95.0)))
 (let ((?x13163 (* ?x832 x1)))
 (let ((?x5045 (* 45.0 ?y4)))
 (let ((?x2137 (+ (+ (* 100.0 ?y6) (* (- 70.0) ?y5)) ?x5045)))
 (let ((?x12189 (* 66.0 x1)))
 (let ((?x2222 (- 37.0)))
 (let ((?x5622 (* ?x2222 ?x2887)))
 (let ((?x13184 (+ (+ (* ?x4699 ?y6) (* 61.0 ?y5)) (* 8.0 ?y4))))
 (let (($x2966 (and (> (+ (+ ?x13184 ?x5622) ?x12189) 0.0) (or (< (+ (+ ?x2137 (* (- 83.0) ?y2)) ?x13163) ?x13133) $x6970))))
 (let ((?x11167 (- 31.0)))
 (let ((?x5919 (* ?x11167 x1)))
 (let ((?x969 (+ (+ (+ (* 25.0 ?y6) (* (- 70.0) ?y5)) (* 88.0 ?x2887)) (* (- 22.0) ?y2))))
 (let ((?x7401 (- 15.0)))
 (let ((?x6909 (* ?x7401 ?y2)))
 (let ((?x2608 (+ (+ (+ (* (- 1.0) ?y6) (* 44.0 ?y5)) (* (- 92.0) ?x2887)) ?x6909)))
 (let ((?x10393 (* 79.0 x1)))
 (let ((?x7818 (* 75.0 ?y4)))
 (let ((?x812 (+ (+ (* (- 67.0) ?y6) (* 75.0 ?y5)) ?x7818)))
 (let (($x3292 (= (+ (+ (+ ?x812 (* (- 71.0) ?x2887)) (* (- 24.0) ?y2)) ?x10393) 0.0)))
 (let ((?x6512 (- 70.0)))
 (let ((?x4496 (* ?x6512 x1)))
 (let ((?x4270 (+ (+ (* 19.0 ?y6) (* ?x12135 ?y5)) (* (- 30.0) ?y4))))
 (let (($x2925 (or (not (= (+ (+ ?x4270 (* (- 29.0) ?y2)) ?x4496) 5.0)) (not $x3292))))
 (let ((?x4893 (- 88.0)))
 (let ((?x1637 (* ?x4893 x1)))
 (let ((?x1728 (+ (+ (+ (* ?x13133 ?y5) (* (- 12.0) ?y4)) (* (- 22.0) ?x2887)) ?x1637)))
 (let ((?x8228 (- 94.0)))
 (let ((?x53 (* ?x8228 x1)))
 (let (($x9865 (= (+ (+ (+ (* ?x4699 ?y5) (* (- 51.0) ?y4)) (* 8.0 ?x2887)) ?x53) 0.0)))
 (let ((?x13225 (- 96.0)))
 (let ((?x9117 (* ?x13225 x1)))
 (let ((?x4693 (* 25.0 ?y2)))
 (let ((?x8870 (+ (+ (+ (* 45.0 ?y6) (* (- 59.0) ?y5)) (* 66.0 ?x2887)) ?x4693)))
 (let (($x2941 (and (= (+ (+ (* (- 78.0) ?y5) (* ?x7543 ?y4)) ?x1928) (- 85.0)) (<= (+ ?x8870 ?x9117) ?x4893))))
 (let (($x10790 (or (and $x2941 (or $x9865 (= ?x1728 77.0))) (or (or $x2925 (and (> ?x2608 65.0) (< (+ ?x969 ?x5919) 82.0))) $x2966))))
 (and $x10790 (or $x3593 (or $x2523 (or (> (+ (+ ?x12068 ?x5374) ?x67) 0.0) $x8100)))))))))))))))))))))))))))))))))))))))))))))))))))))))))))))))))))))))))))) :qid k!20))
  :qid k!20))
 ))
 (let (($x4612 (exists ((?y6 Real) )(! (let ((?x1712 (- 93.0)))
 (let ((?x7260 (* 16.0 x1)))
 (let ((?x2297 (+ (+ (+ (* 95.0 ?y6) (* 38.0 ?y4)) (* (- 69.0) (rval2 ?y3_st))) ?x7260)))
 (let ((?x13225 (- 96.0)))
 (let ((?x2061 (* 58.0 x1)))
 (let ((?x4129 (rval2 ?y3_st)))
 (let ((?x11319 (- 48.0)))
 (let ((?x4342 (* ?x11319 ?x4129)))
 (let ((?x9234 (+ (* (- 30.0) ?y6) (* (- 49.0) ?y4))))
 (let ((?x6512 (- 70.0)))
 (let ((?x7737 (* 67.0 x1)))
 (let ((?x3604 (- 75.0)))
 (let ((?x7827 (* ?x3604 ?y2)))
 (let ((?x6044 (+ (+ (+ (+ (* 11.0 ?y6) (* ?x1712 ?y4)) (* 76.0 ?x4129)) ?x7827) ?x7737)))
 (let (($x9968 (and (<= ?x6044 ?x6512) (not (= (+ (+ (+ ?x9234 ?x4342) (* 88.0 ?y2)) ?x2061) ?x13225)))))
 (let ((?x2222 (- 37.0)))
 (let (($x2527 (<= (+ (+ (* 41.0 ?y6) (* (- 18.0) ?y2)) (* 28.0 x1)) ?x2222)))
 (let ((?x8228 (- 94.0)))
 (let ((?x720 (- 76.0)))
 (let ((?x8904 (* ?x720 x1)))
 (let ((?x8254 (+ (+ (+ (* 85.0 ?y6) (* (- 71.0) ?y4)) (* 33.0 ?y2)) ?x8904)))
 (let ((?x12189 (* 66.0 x1)))
 (let ((?x5664 (- 12.0)))
 (let ((?x2867 (* ?x5664 ?y2)))
 (let ((?x9851 (+ (+ (+ (+ (* 47.0 ?y6) (* 87.0 ?y4)) (* 100.0 ?x4129)) ?x2867) ?x12189)))
 (let ((?x7221 (* 7.0 x1)))
 (let ((?x8433 (+ (+ (+ (* 12.0 ?y6) (* 82.0 ?y4)) (* (- 78.0) ?x4129)) (* (- 52.0) ?y2))))
 (let (($x3424 (and (or (= (+ ?x8433 ?x7221) 0.0) (> ?x9851 0.0)) (or (= ?x8254 ?x8228) $x2527))))
 (let ((?x3745 (* (- 77.0) x1)))
 (let ((?x9435 (+ (+ (+ (* 65.0 ?y6) (* ?x13225 ?y4)) (* 64.0 ?x4129)) (* (- 61.0) ?y2))))
 (let ((?x5877 (- 51.0)))
 (let ((?x2242 (* 19.0 x1)))
 (let ((?x7977 (+ (+ (+ (* (- 90.0) ?y6) (* 61.0 ?y4)) (* (- 88.0) ?x4129)) ?x2242)))
 (let ((?x642 (- 11.0)))
 (let (($x12079 (< (+ (+ (* (- 29.0) ?y4) (* 23.0 ?x4129)) (* (- 5.0) x1)) ?x642)))
 (let ((?x5072 (- 97.0)))
 (let ((?x11264 (- 69.0)))
 (let ((?x8447 (* ?x11264 x1)))
 (let ((?x7535 (* 10.0 ?y2)))
 (let ((?x8881 (+ (+ (+ (+ (* 75.0 ?y6) (* ?x5664 ?y4)) (* 74.0 ?x4129)) ?x7535) ?x8447)))
 (let (($x2029 (> (+ (+ (* ?x11264 ?y6) (* 89.0 ?x4129)) (* (- 65.0) ?y2)) 0.0)))
 (let ((?x547 (- 44.0)))
 (let (($x10939 (>= (+ (+ (* 72.0 ?y6) (* (- 35.0) ?x4129)) (* (- 29.0) ?y2)) ?x547)))
 (let (($x8563 (and (or (and $x10939 $x2029) (and (<= ?x8881 ?x5072) $x12079)) (or (= ?x7977 ?x5877) (not (= (+ ?x9435 ?x3745) 0.0))))))
 (let ((?x2484 (+ (+ (+ (* 29.0 ?y6) (* 61.0 ?y4)) (* (- 10.0) ?x4129)) (* (- 23.0) ?y2))))
 (let (($x4718 (or (>= (+ (+ (* 37.0 ?x4129) (* 100.0 ?y2)) (* 53.0 x1)) 22.0) (<= ?x2484 63.0))))
 (let ((?x7101 (- 55.0)))
 (let ((?x3013 (* ?x7101 x1)))
 (let ((?x2152 (+ (+ (+ (* 62.0 ?y6) (* 11.0 ?x4129)) (* (- 82.0) ?y2)) ?x3013)))
 (let ((?x7846 (- 22.0)))
 (let ((?x409 (* ?x7846 x1)))
 (let (($x3971 (not (= (+ (+ (* (- 68.0) ?y6) (* (- 67.0) ?x4129)) ?x409) 0.0))))
 (let ((?x5748 (- 82.0)))
 (let ((?x3664 (* ?x5748 x1)))
 (let (($x2684 (>= (+ (+ (+ (* ?x547 ?y6) (* 39.0 ?y4)) (* ?x7101 ?x4129)) ?x3664) 73.0)))
 (let ((?x9298 (- 8.0)))
 (let ((?x2093 (* ?x9298 x1)))
 (let ((?x1256 (+ (+ (+ (* 86.0 ?y6) (* 85.0 ?x4129)) (* (- 47.0) ?y2)) ?x2093)))
 (let ((?x11180 (* ?x3604 x1)))
 (let ((?x7791 (* 50.0 ?y2)))
 (let ((?x11289 (+ (+ (+ (* (- 26.0) ?y6) (* (- 72.0) ?y4)) (* 73.0 ?x4129)) ?x7791)))
 (let ((?x6321 (* 69.0 x1)))
 (let (($x2896 (> (+ (+ (+ (* 93.0 ?y6) (* 97.0 ?y4)) (* 19.0 ?x4129)) ?x6321) 18.0)))
 (let (($x6833 (and (or $x2896 (not (= (+ ?x11289 ?x11180) 63.0))) (or (= ?x1256 95.0) $x2684))))
 (let ((?x136 (+ (+ (+ (* ?x5877 ?y6) (* 62.0 ?y4)) (* (- 28.0) ?x4129)) (* (- 28.0) ?y2))))
 (let (($x358 (<= (+ (+ (* 14.0 ?x4129) (* 68.0 ?y2)) (* (- 3.0) x1)) 83.0)))
 (let ((?x8719 (- 71.0)))
 (let ((?x6458 (* 41.0 x1)))
 (let ((?x11600 (+ (+ (+ (* ?x8719 ?y6) (* (- 20.0) ?y4)) (* (- 87.0) ?x4129)) (* 40.0 ?y2))))
 (let ((?x1708 (- 47.0)))
 (let ((?x7401 (- 15.0)))
 (let ((?x6119 (* ?x7401 x1)))
 (let ((?x10735 (+ (+ (+ (* (- 57.0) ?y6) (* 92.0 ?y4)) (* (- 19.0) ?x4129)) (* 2.0 ?y2))))
 (let (($x437 (or (and (>= (+ ?x10735 ?x6119) ?x1708) (>= (+ ?x11600 ?x6458) ?x8719)) (or $x358 (> ?x136 0.0)))))
 (or (or (and $x437 $x6833) (and (and $x3971 (= ?x2152 75.0)) $x4718)) (and $x8563 (or $x3424 (or $x9968 (<= ?x2297 ?x1712))))))))))))))))))))))))))))))))))))))))))))))))))))))))))))))))))))))))))))))) :qid k!20))
 ))
 (let (($x4140 (not (= ?y3_st (RMk1 val!267)))))
 (and $x4140 (or (and $x4612 $x1493) $x545)))))))
 )
 )
 ))
 (or $x588 $x5534))))
(check-sat)
